n = 100;
m = 5;
p = [50,0,0,0,50];
v = [0.261,0.508,0.658,0.742,0.949];
ce = [16.589,16.532,13.67,14.616,0.291];
c = [|0,2.333,1.17,1.181,1.85|4.77,0,0.223,0.41,5.109|1.475,2.965,0,5.207,0.792|4.246,4.061,4.267,0,2.966|5.535,0.88,0.765,0.621,0|];
ct = 80.76;
maxM = 20;